Total weight: 1187.2
Route 1: 0 28 33 69 83 5 59 98 92 95 15 73 21 12 76 29 3 79 78 34 81 51 9 66 20 32 10 1 50 77 68 80 24 35 70 0 
Route 2: 0 27 31 63 11 45 61 16 44 14 42 87 2 40 53 94 6 99 85 38 86 84 17 60 0 
Route 3: 0 52 82 47 36 62 88 30 65 71 90 64 49 19 7 18 46 8 48 96 97 37 100 91 93 89 13 58 0 
Route 4: 0 72 75 23 67 39 56 22 41 57 43 74 26 4 25 55 54 0 
